problem_generation/data/GISP/train/er_n=64_m=1224_p=0.60_SET2_setparam=100.00_alpha=0.50_539.lp
maximize
OBJ:100x0 + 100x1 + 100x2 + 100x3 + 100x4 + 100x5 + 100x6 + 100x7 + 100x8 + 100x9 + 100x10 + 100x11 + 100x12 + 100x13 + 100x14 + 100x15 + 100x16 + 100x17 + 100x18 + 100x19 + 100x20 + 100x21 + 100x22 + 100x23 + 100x24 + 100x25 + 100x26 + 100x27 + 100x28 + 100x29 + 100x30 + 100x31 + 100x32 + 100x33 + 100x34 + 100x35 + 100x36 + 100x37 + 100x38 + 100x39 + 100x40 + 100x41 + 100x42 + 100x43 + 100x44 + 100x45 + 100x46 + 100x47 + 100x48 + 100x49 + 100x50 + 100x51 + 100x52 + 100x53 + 100x54 + 100x55 + 100x56 + 100x57 + 100x58 + 100x59 + 100x60 + 100x61 + 100x62 + 100x63 - y55_57 - y26_30 - y18_26 - y28_58 - y7_35 - y29_32 - y18_44 - y29_41 - y8_18 - y21_37 - y48_54 - y48_63 - y0_23 - y29_59 - y21_55 - y33_47 - y2_41 - y10_54 - y33_56 - y25_52 - y14_15 - y22_28 - y2_59 - y22_37 - y22_46 - y14_51 - y7_12 - y36_48 - y15_25 - y47_48 - y18_21 - y17_53 - y28_53 - y7_30 - y9_49 - y18_30 - y5_60 - y9_58 - y48_49 - y0_9 - y29_45 - y6_52 - y21_50 - y40_63 - y2_27 - y25_29 - y33_42 - y2_36 - y25_38 - y44_51 - y10_58 - y22_23 - y32_55 - y43_55 - y36_43 - y17_39 - y28_57 - y9_62 - y21_36 - y40_58 - y10_26 - y54_60 - y33_37 - y25_33 - y25_42 - y32_50 - y13_46 - y35_46 - y1_62 - y36_47 - y55_60 - y28_43 - y47_56 - y17_52 - y9_48 - y28_61 - y58_62 - y29_35 - y29_44 - y40_44 - y42_63 - y10_12 - y39_48 - y10_21 - y25_28 - y12_58 - y23_58 - y32_36 - y32_45 - y35_50 - y43_63 - y1_57 - y24_59 - y5_27 - y9_25 - y5_36 - y47_51 - y17_47 - y5_54 - y28_56 - y29_30 - y50_62 - y2_3 - y39_52 - y2_12 - y31_48 - y10_25 - y39_61 - y62_63 - y31_57 - y12_62 - y24_27 - y32_40 - y24_36 - y32_49 - y24_45 - y16_41 - y13_54 - y1_61 - y24_63 - y9_11 - y35_63 - y17_24 - y57_60 - y17_33 - y5_40 - y6_14 - y9_47 - y58_61 - y42_44 - y8_51 - y0_56 - y2_7 - y20_52 - y20_61 - y4_44 - y54_63 - y35_40 - y43_53 - y35_49 - y5_8 - y16_54 - y5_17 - y17_19 - y46_55 - y38_51 - y49_51 - y49_60 - y28_37 - y7_63 - y30_46 - y42_48 - y19_55 - y30_55 - y11_60 - y2_11 - y4_30 - y39_60 - y20_56 - y31_56 - y12_61 - y16_22 - y24_35 - y16_31 - y37_63 - y16_49 - y9_19 - y15_53 - y38_55 - y9_28 - y7_58 - y18_58 - y6_13 - y30_41 - y27_54 - y11_37 - y42_52 - y27_63 - y30_59 - y0_55 - y12_38 - y23_38 - y31_51 - y23_47 - y4_43 - y23_56 - y1_19 - y13_21 - y16_17 - y4_61 - y34_62 - y16_35 - y1_46 - y5_16 - y46_54 - y5_25 - y57_63 - y26_57 - y49_59 - y8_27 - y19_27 - y30_36 - y0_32 - y19_45 - y30_45 - y27_58 - y42_47 - y12_15 - y39_41 - y12_24 - y31_37 - y4_20 - y12_33 - y23_42 - y34_39 - y56_57 - y14_60 - y26_34 - y5_11 - y46_49 - y38_45 - y46_58 - y57_58 - y7_48 - y26_61 - y18_57 - y8_22 - y19_22 - y11_18 - y11_27 - y30_40 - y19_49 - y0_45 - y41_46 - y0_54 - y12_19 - y41_55 - y20_32 - y4_24 - y2_63 - y34_43 - y3_46 - y14_46 - y34_61 - y56_61 - y3_55 - y14_55 - y15_20 - y37_57 - y18_25 - y38_49 - y7_43 - y15_56 - y26_56 - y7_52 - y8_17 - y11_13 - y7_61 - y30_35 - y8_44 - y21_63 - y0_40 - y12_14 - y60_63 - y12_23 - y41_59 - y4_28 - y10_62 - y2_58 - y25_60 - y3_32 - y45_47 - y14_41 - y34_56 - y45_56 - y3_59 - y15_24 - y15_33 - y7_29 - y15_42 - y26_42 - y7_47 - y8_12 - y18_56 - y8_21 - y8_30 - y29_62 - y4_5 - y4_14 - y33_50 - y44_50 - y33_59 - y2_62 - y22_40 - y22_49 - y3_45 - y37_47 - y15_19 - y14_63 - y7_24 - y0_12 - y21_53 - y11_30 - y10_34 - y25_32 - y41_58 - y52_58 - y10_52 - y44_54 - y2_48 - y44_63 - y22_26 - y2_57 - y34_37 - y3_49 - y18_19 - y17_51 - y29_34 - y8_11 - y0_16 - y6_50 - y21_48 - y6_59 - y44_49 - y2_52 - y14_17 - y13_58 - y24_58 - y14_35 - y17_46 - y7_23 - y5_53 - y28_55 - y9_60 - y21_25 - y6_36 - y10_15 - y6_63 - y2_20 - y10_51 - y51_52 - y3_12 - y35_53 - y3_30 - y35_62 - y28_32 - y36_45 - y36_54 - y47_54 - y47_63 - y5_57 - y6_22 - y17_59 - y28_59 - y6_31 - y29_33 - y6_49 - y10_19 - y2_15 - y10_28 - y20_60 - y25_35 - y3_7 - y24_39 - y3_16 - y14_16 - y13_48 - y24_48 - y14_25 - y32_61 - y43_61 - y1_55 - y13_57 - y24_57 - y6_8 - y6_17 - y5_61 - y6_26 - y9_59 - y50_60 - y10_14 - y39_50 - y2_10 - y31_46 - y12_51 - y23_60 - y13_25 - y4_56 - y32_38 - y13_34 - y43_47 - y1_41 - y35_43 - y16_39 - y1_50 - y16_48 - y17_22 - y28_31 - y36_44 - y17_40 - y28_49 - y5_56 - y6_21 - y19_58 - y0_63 - y2_5 - y39_54 - y23_46 - y31_59 - y4_51 - y32_33 - y1_27 - y13_38 - y35_38 - y24_47 - y1_54 - y13_56 - y5_15 - y46_53 - y9_13 - y5_24 - y17_26 - y57_62 - y49_58 - y5_33 - y5_42 - y28_44 - y9_40 - y27_48 - y58_63 - y27_57 - y8_53 - y30_53 - y0_49 - y19_62 - y30_62 - y0_58 - y11_58 - y23_32 - y2_9 - y39_58 - y12_50 - y13_24 - y43_46 - y24_51 - y46_57 - y38_53 - y17_30 - y26_60 - y49_62 - y9_35 - y27_34 - y6_11 - y27_43 - y8_39 - y30_39 - y19_48 - y42_50 - y27_61 - y11_44 - y8_57 - y30_57 - y20_31 - y39_44 - y2_4 - y4_23 - y20_49 - y31_49 - y1_8 - y13_19 - y1_26 - y13_28 - y16_24 - y1_35 - y38_39 - y46_52 - y9_12 - y57_61 - y9_21 - y26_55 - y38_57 - y18_51 - y27_29 - y18_60 - y27_38 - y19_34 - y0_30 - y42_45 - y8_52 - y19_52 - y11_48 - y12_13 - y8_61 - y60_62 - y11_57 - y31_35 - y12_31 - y23_31 - y4_27 - y1_3 - y13_14 - y34_46 - y16_19 - y1_30 - y22_62 - y1_39 - y46_47 - y15_41 - y46_56 - y9_16 - y7_46 - y18_46 - y15_59 - y18_55 - y8_20 - y27_42 - y8_38 - y19_38 - y19_47 - y30_47 - y42_49 - y11_43 - y8_56 - y30_56 - y20_30 - y11_61 - y12_26 - y4_22 - y44_58 - y12_35 - y23_44 - y1_7 - y4_40 - y13_18 - y22_48 - y53_63 - y56_59 - y14_53 - y37_55 - y26_27 - y26_36 - y26_45 - y7_41 - y15_54 - y49_56 - y7_50 - y19_24 - y8_33 - y30_33 - y0_29 - y19_42 - y0_47 - y11_47 - y60_61 - y4_8 - y12_21 - y41_57 - y44_53 - y4_26 - y44_62 - y22_43 - y34_45 - y14_39 - y22_52 - y3_48 - y37_50 - y22_61 - y34_63 - y45_63 - y37_59 - y15_22 - y7_18 - y15_31 - y18_27 - y38_42 - y7_36 - y15_49 - y7_45 - y8_10 - y8_28 - y29_60 - y40_60 - y8_37 - y19_37 - y21_56 - y11_33 - y11_42 - y4_12 - y44_48 - y1_6 - y22_38 - y34_40 - y3_34 - y14_43 - y56_58 - y15_17 - y7_13 - y3_61 - y14_61 - y15_35 - y26_35 - y7_40 - y0_1 - y0_10 - y8_23 - y0_19 - y11_19 - y30_32 - y0_28 - y11_28 - y25_30 - y10_41 - y41_56 - y4_16 - y10_50 - y44_61 - y22_24 - y3_20 - y14_47 - y7_8 - y3_56
 Subject to
C1: x0+x1-y0_1 <=1 
C2: x0+x7 <=1 
C3: x0+x8 <=1 
C4: x0+x9-y0_9 <=1 
C5: x0+x10-y0_10 <=1 
C6: x0+x11 <=1 
C7: x0+x12-y0_12 <=1 
C8: x0+x15 <=1 
C9: x0+x16-y0_16 <=1 
C10: x0+x17 <=1 
C11: x0+x19-y0_19 <=1 
C12: x0+x22 <=1 
C13: x0+x23-y0_23 <=1 
C14: x0+x24 <=1 
C15: x0+x28-y0_28 <=1 
C16: x0+x29-y0_29 <=1 
C17: x0+x30-y0_30 <=1 
C18: x0+x31 <=1 
C19: x0+x32-y0_32 <=1 
C20: x0+x34 <=1 
C21: x0+x35 <=1 
C22: x0+x36 <=1 
C23: x0+x39 <=1 
C24: x0+x40-y0_40 <=1 
C25: x0+x41 <=1 
C26: x0+x42 <=1 
C27: x0+x43 <=1 
C28: x0+x45-y0_45 <=1 
C29: x0+x47-y0_47 <=1 
C30: x0+x48 <=1 
C31: x0+x49-y0_49 <=1 
C32: x0+x50 <=1 
C33: x0+x51 <=1 
C34: x0+x53 <=1 
C35: x0+x54-y0_54 <=1 
C36: x0+x55-y0_55 <=1 
C37: x0+x56-y0_56 <=1 
C38: x0+x58-y0_58 <=1 
C39: x0+x59 <=1 
C40: x0+x60 <=1 
C41: x0+x62 <=1 
C42: x0+x63-y0_63 <=1 
C43: x1+x2 <=1 
C44: x1+x3-y1_3 <=1 
C45: x1+x4 <=1 
C46: x1+x6-y1_6 <=1 
C47: x1+x7-y1_7 <=1 
C48: x1+x8-y1_8 <=1 
C49: x1+x9 <=1 
C50: x1+x11 <=1 
C51: x1+x13 <=1 
C52: x1+x15 <=1 
C53: x1+x16 <=1 
C54: x1+x18 <=1 
C55: x1+x19-y1_19 <=1 
C56: x1+x20 <=1 
C57: x1+x22 <=1 
C58: x1+x24 <=1 
C59: x1+x25 <=1 
C60: x1+x26-y1_26 <=1 
C61: x1+x27-y1_27 <=1 
C62: x1+x30-y1_30 <=1 
C63: x1+x32 <=1 
C64: x1+x34 <=1 
C65: x1+x35-y1_35 <=1 
C66: x1+x39-y1_39 <=1 
C67: x1+x40 <=1 
C68: x1+x41-y1_41 <=1 
C69: x1+x43 <=1 
C70: x1+x46-y1_46 <=1 
C71: x1+x50-y1_50 <=1 
C72: x1+x51 <=1 
C73: x1+x53 <=1 
C74: x1+x54-y1_54 <=1 
C75: x1+x55-y1_55 <=1 
C76: x1+x57-y1_57 <=1 
C77: x1+x59 <=1 
C78: x1+x60 <=1 
C79: x1+x61-y1_61 <=1 
C80: x1+x62-y1_62 <=1 
C81: x1+x63 <=1 
C82: x2+x3-y2_3 <=1 
C83: x2+x4-y2_4 <=1 
C84: x2+x5-y2_5 <=1 
C85: x2+x7-y2_7 <=1 
C86: x2+x9-y2_9 <=1 
C87: x2+x10-y2_10 <=1 
C88: x2+x11-y2_11 <=1 
C89: x2+x12-y2_12 <=1 
C90: x2+x14 <=1 
C91: x2+x15-y2_15 <=1 
C92: x2+x16 <=1 
C93: x2+x17 <=1 
C94: x2+x18 <=1 
C95: x2+x19 <=1 
C96: x2+x20-y2_20 <=1 
C97: x2+x22 <=1 
C98: x2+x24 <=1 
C99: x2+x25 <=1 
C100: x2+x26 <=1 
C101: x2+x27-y2_27 <=1 
C102: x2+x28 <=1 
C103: x2+x30 <=1 
C104: x2+x33 <=1 
C105: x2+x34 <=1 
C106: x2+x36-y2_36 <=1 
C107: x2+x38 <=1 
C108: x2+x41-y2_41 <=1 
C109: x2+x47 <=1 
C110: x2+x48-y2_48 <=1 
C111: x2+x49 <=1 
C112: x2+x51 <=1 
C113: x2+x52-y2_52 <=1 
C114: x2+x53 <=1 
C115: x2+x54 <=1 
C116: x2+x55 <=1 
C117: x2+x57-y2_57 <=1 
C118: x2+x58-y2_58 <=1 
C119: x2+x59-y2_59 <=1 
C120: x2+x62-y2_62 <=1 
C121: x2+x63-y2_63 <=1 
C122: x3+x5 <=1 
C123: x3+x6 <=1 
C124: x3+x7-y3_7 <=1 
C125: x3+x10 <=1 
C126: x3+x12-y3_12 <=1 
C127: x3+x16-y3_16 <=1 
C128: x3+x20-y3_20 <=1 
C129: x3+x29 <=1 
C130: x3+x30-y3_30 <=1 
C131: x3+x32-y3_32 <=1 
C132: x3+x33 <=1 
C133: x3+x34-y3_34 <=1 
C134: x3+x36 <=1 
C135: x3+x38 <=1 
C136: x3+x39 <=1 
C137: x3+x44 <=1 
C138: x3+x45-y3_45 <=1 
C139: x3+x46-y3_46 <=1 
C140: x3+x47 <=1 
C141: x3+x48-y3_48 <=1 
C142: x3+x49-y3_49 <=1 
C143: x3+x51 <=1 
C144: x3+x53 <=1 
C145: x3+x55-y3_55 <=1 
C146: x3+x56-y3_56 <=1 
C147: x3+x57 <=1 
C148: x3+x59-y3_59 <=1 
C149: x3+x61-y3_61 <=1 
C150: x4+x5-y4_5 <=1 
C151: x4+x7 <=1 
C152: x4+x8-y4_8 <=1 
C153: x4+x9 <=1 
C154: x4+x10 <=1 
C155: x4+x11 <=1 
C156: x4+x12-y4_12 <=1 
C157: x4+x13 <=1 
C158: x4+x14-y4_14 <=1 
C159: x4+x15 <=1 
C160: x4+x16-y4_16 <=1 
C161: x4+x17 <=1 
C162: x4+x20-y4_20 <=1 
C163: x4+x21 <=1 
C164: x4+x22-y4_22 <=1 
C165: x4+x23-y4_23 <=1 
C166: x4+x24-y4_24 <=1 
C167: x4+x26-y4_26 <=1 
C168: x4+x27-y4_27 <=1 
C169: x4+x28-y4_28 <=1 
C170: x4+x30-y4_30 <=1 
C171: x4+x31 <=1 
C172: x4+x35 <=1 
C173: x4+x37 <=1 
C174: x4+x38 <=1 
C175: x4+x40-y4_40 <=1 
C176: x4+x41 <=1 
C177: x4+x43-y4_43 <=1 
C178: x4+x44-y4_44 <=1 
C179: x4+x45 <=1 
C180: x4+x49 <=1 
C181: x4+x50 <=1 
C182: x4+x51-y4_51 <=1 
C183: x4+x52 <=1 
C184: x4+x53 <=1 
C185: x4+x55 <=1 
C186: x4+x56-y4_56 <=1 
C187: x4+x58 <=1 
C188: x4+x59 <=1 
C189: x4+x61-y4_61 <=1 
C190: x4+x62 <=1 
C191: x5+x7 <=1 
C192: x5+x8-y5_8 <=1 
C193: x5+x10 <=1 
C194: x5+x11-y5_11 <=1 
C195: x5+x15-y5_15 <=1 
C196: x5+x16-y5_16 <=1 
C197: x5+x17-y5_17 <=1 
C198: x5+x20 <=1 
C199: x5+x24-y5_24 <=1 
C200: x5+x25-y5_25 <=1 
C201: x5+x27-y5_27 <=1 
C202: x5+x29 <=1 
C203: x5+x30 <=1 
C204: x5+x32 <=1 
C205: x5+x33-y5_33 <=1 
C206: x5+x36-y5_36 <=1 
C207: x5+x38 <=1 
C208: x5+x39 <=1 
C209: x5+x40-y5_40 <=1 
C210: x5+x42-y5_42 <=1 
C211: x5+x47 <=1 
C212: x5+x48 <=1 
C213: x5+x50 <=1 
C214: x5+x52 <=1 
C215: x5+x53-y5_53 <=1 
C216: x5+x54-y5_54 <=1 
C217: x5+x56-y5_56 <=1 
C218: x5+x57-y5_57 <=1 
C219: x5+x58 <=1 
C220: x5+x59 <=1 
C221: x5+x60-y5_60 <=1 
C222: x5+x61-y5_61 <=1 
C223: x5+x62 <=1 
C224: x5+x63 <=1 
C225: x6+x8-y6_8 <=1 
C226: x6+x10 <=1 
C227: x6+x11-y6_11 <=1 
C228: x6+x13-y6_13 <=1 
C229: x6+x14-y6_14 <=1 
C230: x6+x17-y6_17 <=1 
C231: x6+x20 <=1 
C232: x6+x21-y6_21 <=1 
C233: x6+x22-y6_22 <=1 
C234: x6+x24 <=1 
C235: x6+x26-y6_26 <=1 
C236: x6+x30 <=1 
C237: x6+x31-y6_31 <=1 
C238: x6+x32 <=1 
C239: x6+x33 <=1 
C240: x6+x35 <=1 
C241: x6+x36-y6_36 <=1 
C242: x6+x39 <=1 
C243: x6+x46 <=1 
C244: x6+x48 <=1 
C245: x6+x49-y6_49 <=1 
C246: x6+x50-y6_50 <=1 
C247: x6+x52-y6_52 <=1 
C248: x6+x53 <=1 
C249: x6+x55 <=1 
C250: x6+x57 <=1 
C251: x6+x58 <=1 
C252: x6+x59-y6_59 <=1 
C253: x6+x60 <=1 
C254: x6+x61 <=1 
C255: x6+x63-y6_63 <=1 
C256: x7+x8-y7_8 <=1 
C257: x7+x9 <=1 
C258: x7+x12-y7_12 <=1 
C259: x7+x13-y7_13 <=1 
C260: x7+x14 <=1 
C261: x7+x18-y7_18 <=1 
C262: x7+x19 <=1 
C263: x7+x21 <=1 
C264: x7+x23-y7_23 <=1 
C265: x7+x24-y7_24 <=1 
C266: x7+x25 <=1 
C267: x7+x26 <=1 
C268: x7+x28 <=1 
C269: x7+x29-y7_29 <=1 
C270: x7+x30-y7_30 <=1 
C271: x7+x34 <=1 
C272: x7+x35-y7_35 <=1 
C273: x7+x36-y7_36 <=1 
C274: x7+x37 <=1 
C275: x7+x40-y7_40 <=1 
C276: x7+x41-y7_41 <=1 
C277: x7+x43-y7_43 <=1 
C278: x7+x45-y7_45 <=1 
C279: x7+x46-y7_46 <=1 
C280: x7+x47-y7_47 <=1 
C281: x7+x48-y7_48 <=1 
C282: x7+x49 <=1 
C283: x7+x50-y7_50 <=1 
C284: x7+x52-y7_52 <=1 
C285: x7+x58-y7_58 <=1 
C286: x7+x60 <=1 
C287: x7+x61-y7_61 <=1 
C288: x7+x63-y7_63 <=1 
C289: x8+x9 <=1 
C290: x8+x10-y8_10 <=1 
C291: x8+x11-y8_11 <=1 
C292: x8+x12-y8_12 <=1 
C293: x8+x13 <=1 
C294: x8+x15 <=1 
C295: x8+x17-y8_17 <=1 
C296: x8+x18-y8_18 <=1 
C297: x8+x19 <=1 
C298: x8+x20-y8_20 <=1 
C299: x8+x21-y8_21 <=1 
C300: x8+x22-y8_22 <=1 
C301: x8+x23-y8_23 <=1 
C302: x8+x25 <=1 
C303: x8+x27-y8_27 <=1 
C304: x8+x28-y8_28 <=1 
C305: x8+x30-y8_30 <=1 
C306: x8+x31 <=1 
C307: x8+x33-y8_33 <=1 
C308: x8+x35 <=1 
C309: x8+x37-y8_37 <=1 
C310: x8+x38-y8_38 <=1 
C311: x8+x39-y8_39 <=1 
C312: x8+x41 <=1 
C313: x8+x42 <=1 
C314: x8+x44-y8_44 <=1 
C315: x8+x46 <=1 
C316: x8+x51-y8_51 <=1 
C317: x8+x52-y8_52 <=1 
C318: x8+x53-y8_53 <=1 
C319: x8+x56-y8_56 <=1 
C320: x8+x57-y8_57 <=1 
C321: x8+x58 <=1 
C322: x8+x59 <=1 
C323: x8+x61-y8_61 <=1 
C324: x8+x63 <=1 
C325: x9+x10 <=1 
C326: x9+x11-y9_11 <=1 
C327: x9+x12-y9_12 <=1 
C328: x9+x13-y9_13 <=1 
C329: x9+x14 <=1 
C330: x9+x16-y9_16 <=1 
C331: x9+x17 <=1 
C332: x9+x18 <=1 
C333: x9+x19-y9_19 <=1 
C334: x9+x21-y9_21 <=1 
C335: x9+x22 <=1 
C336: x9+x24 <=1 
C337: x9+x25-y9_25 <=1 
C338: x9+x27 <=1 
C339: x9+x28-y9_28 <=1 
C340: x9+x31 <=1 
C341: x9+x33 <=1 
C342: x9+x35-y9_35 <=1 
C343: x9+x36 <=1 
C344: x9+x37 <=1 
C345: x9+x38 <=1 
C346: x9+x40-y9_40 <=1 
C347: x9+x41 <=1 
C348: x9+x42 <=1 
C349: x9+x45 <=1 
C350: x9+x47-y9_47 <=1 
C351: x9+x48-y9_48 <=1 
C352: x9+x49-y9_49 <=1 
C353: x9+x50 <=1 
C354: x9+x53 <=1 
C355: x9+x54 <=1 
C356: x9+x58-y9_58 <=1 
C357: x9+x59-y9_59 <=1 
C358: x9+x60-y9_60 <=1 
C359: x9+x62-y9_62 <=1 
C360: x10+x12-y10_12 <=1 
C361: x10+x14-y10_14 <=1 
C362: x10+x15-y10_15 <=1 
C363: x10+x16 <=1 
C364: x10+x18 <=1 
C365: x10+x19-y10_19 <=1 
C366: x10+x21-y10_21 <=1 
C367: x10+x22 <=1 
C368: x10+x25-y10_25 <=1 
C369: x10+x26-y10_26 <=1 
C370: x10+x28-y10_28 <=1 
C371: x10+x31 <=1 
C372: x10+x33 <=1 
C373: x10+x34-y10_34 <=1 
C374: x10+x39 <=1 
C375: x10+x40 <=1 
C376: x10+x41-y10_41 <=1 
C377: x10+x42 <=1 
C378: x10+x44 <=1 
C379: x10+x45 <=1 
C380: x10+x46 <=1 
C381: x10+x48 <=1 
C382: x10+x49 <=1 
C383: x10+x50-y10_50 <=1 
C384: x10+x51-y10_51 <=1 
C385: x10+x52-y10_52 <=1 
C386: x10+x54-y10_54 <=1 
C387: x10+x55 <=1 
C388: x10+x56 <=1 
C389: x10+x57 <=1 
C390: x10+x58-y10_58 <=1 
C391: x10+x59 <=1 
C392: x10+x61 <=1 
C393: x10+x62-y10_62 <=1 
C394: x10+x63 <=1 
C395: x11+x13-y11_13 <=1 
C396: x11+x15 <=1 
C397: x11+x16 <=1 
C398: x11+x18-y11_18 <=1 
C399: x11+x19-y11_19 <=1 
C400: x11+x21 <=1 
C401: x11+x22 <=1 
C402: x11+x23 <=1 
C403: x11+x25 <=1 
C404: x11+x27-y11_27 <=1 
C405: x11+x28-y11_28 <=1 
C406: x11+x30-y11_30 <=1 
C407: x11+x33-y11_33 <=1 
C408: x11+x35 <=1 
C409: x11+x37-y11_37 <=1 
C410: x11+x42-y11_42 <=1 
C411: x11+x43-y11_43 <=1 
C412: x11+x44-y11_44 <=1 
C413: x11+x45 <=1 
C414: x11+x47-y11_47 <=1 
C415: x11+x48-y11_48 <=1 
C416: x11+x57-y11_57 <=1 
C417: x11+x58-y11_58 <=1 
C418: x11+x60-y11_60 <=1 
C419: x11+x61-y11_61 <=1 
C420: x12+x13-y12_13 <=1 
C421: x12+x14-y12_14 <=1 
C422: x12+x15-y12_15 <=1 
C423: x12+x16 <=1 
C424: x12+x17 <=1 
C425: x12+x18 <=1 
C426: x12+x19-y12_19 <=1 
C427: x12+x21-y12_21 <=1 
C428: x12+x23-y12_23 <=1 
C429: x12+x24-y12_24 <=1 
C430: x12+x26-y12_26 <=1 
C431: x12+x27 <=1 
C432: x12+x30 <=1 
C433: x12+x31-y12_31 <=1 
C434: x12+x33-y12_33 <=1 
C435: x12+x34 <=1 
C436: x12+x35-y12_35 <=1 
C437: x12+x38-y12_38 <=1 
C438: x12+x41 <=1 
C439: x12+x42 <=1 
C440: x12+x49 <=1 
C441: x12+x50-y12_50 <=1 
C442: x12+x51-y12_51 <=1 
C443: x12+x52 <=1 
C444: x12+x53 <=1 
C445: x12+x57 <=1 
C446: x12+x58-y12_58 <=1 
C447: x12+x60 <=1 
C448: x12+x61-y12_61 <=1 
C449: x12+x62-y12_62 <=1 
C450: x12+x63 <=1 
C451: x13+x14-y13_14 <=1 
C452: x13+x15 <=1 
C453: x13+x17 <=1 
C454: x13+x18-y13_18 <=1 
C455: x13+x19-y13_19 <=1 
C456: x13+x20 <=1 
C457: x13+x21-y13_21 <=1 
C458: x13+x23 <=1 
C459: x13+x24-y13_24 <=1 
C460: x13+x25-y13_25 <=1 
C461: x13+x27 <=1 
C462: x13+x28-y13_28 <=1 
C463: x13+x29 <=1 
C464: x13+x30 <=1 
C465: x13+x31 <=1 
C466: x13+x32 <=1 
C467: x13+x33 <=1 
C468: x13+x34-y13_34 <=1 
C469: x13+x38-y13_38 <=1 
C470: x13+x41 <=1 
C471: x13+x42 <=1 
C472: x13+x43 <=1 
C473: x13+x44 <=1 
C474: x13+x46-y13_46 <=1 
C475: x13+x48-y13_48 <=1 
C476: x13+x53 <=1 
C477: x13+x54-y13_54 <=1 
C478: x13+x55 <=1 
C479: x13+x56-y13_56 <=1 
C480: x13+x57-y13_57 <=1 
C481: x13+x58-y13_58 <=1 
C482: x13+x60 <=1 
C483: x13+x62 <=1 
C484: x14+x15-y14_15 <=1 
C485: x14+x16-y14_16 <=1 
C486: x14+x17-y14_17 <=1 
C487: x14+x19 <=1 
C488: x14+x21 <=1 
C489: x14+x22 <=1 
C490: x14+x23 <=1 
C491: x14+x25-y14_25 <=1 
C492: x14+x27 <=1 
C493: x14+x32 <=1 
C494: x14+x33 <=1 
C495: x14+x35-y14_35 <=1 
C496: x14+x38 <=1 
C497: x14+x39-y14_39 <=1 
C498: x14+x40 <=1 
C499: x14+x41-y14_41 <=1 
C500: x14+x42 <=1 
C501: x14+x43-y14_43 <=1 
C502: x14+x45 <=1 
C503: x14+x46-y14_46 <=1 
C504: x14+x47-y14_47 <=1 
C505: x14+x48 <=1 
C506: x14+x50 <=1 
C507: x14+x51-y14_51 <=1 
C508: x14+x52 <=1 
C509: x14+x53-y14_53 <=1 
C510: x14+x54 <=1 
C511: x14+x55-y14_55 <=1 
C512: x14+x59 <=1 
C513: x14+x60-y14_60 <=1 
C514: x14+x61-y14_61 <=1 
C515: x14+x63-y14_63 <=1 
C516: x15+x16 <=1 
C517: x15+x17-y15_17 <=1 
C518: x15+x19-y15_19 <=1 
C519: x15+x20-y15_20 <=1 
C520: x15+x22-y15_22 <=1 
C521: x15+x24-y15_24 <=1 
C522: x15+x25-y15_25 <=1 
C523: x15+x26 <=1 
C524: x15+x28 <=1 
C525: x15+x31-y15_31 <=1 
C526: x15+x32 <=1 
C527: x15+x33-y15_33 <=1 
C528: x15+x35-y15_35 <=1 
C529: x15+x36 <=1 
C530: x15+x39 <=1 
C531: x15+x41-y15_41 <=1 
C532: x15+x42-y15_42 <=1 
C533: x15+x43 <=1 
C534: x15+x45 <=1 
C535: x15+x47 <=1 
C536: x15+x48 <=1 
C537: x15+x49-y15_49 <=1 
C538: x15+x51 <=1 
C539: x15+x53-y15_53 <=1 
C540: x15+x54-y15_54 <=1 
C541: x15+x55 <=1 
C542: x15+x56-y15_56 <=1 
C543: x15+x59-y15_59 <=1 
C544: x15+x62 <=1 
C545: x16+x17-y16_17 <=1 
C546: x16+x18 <=1 
C547: x16+x19-y16_19 <=1 
C548: x16+x20 <=1 
C549: x16+x22-y16_22 <=1 
C550: x16+x24-y16_24 <=1 
C551: x16+x26 <=1 
C552: x16+x27 <=1 
C553: x16+x28 <=1 
C554: x16+x29 <=1 
C555: x16+x31-y16_31 <=1 
C556: x16+x32 <=1 
C557: x16+x35-y16_35 <=1 
C558: x16+x36 <=1 
C559: x16+x37 <=1 
C560: x16+x38 <=1 
C561: x16+x39-y16_39 <=1 
C562: x16+x41-y16_41 <=1 
C563: x16+x43 <=1 
C564: x16+x48-y16_48 <=1 
C565: x16+x49-y16_49 <=1 
C566: x16+x52 <=1 
C567: x16+x54-y16_54 <=1 
C568: x16+x55 <=1 
C569: x16+x60 <=1 
C570: x17+x18 <=1 
C571: x17+x19-y17_19 <=1 
C572: x17+x20 <=1 
C573: x17+x22-y17_22 <=1 
C574: x17+x23 <=1 
C575: x17+x24-y17_24 <=1 
C576: x17+x26-y17_26 <=1 
C577: x17+x27 <=1 
C578: x17+x30-y17_30 <=1 
C579: x17+x31 <=1 
C580: x17+x33-y17_33 <=1 
C581: x17+x34 <=1 
C582: x17+x36 <=1 
C583: x17+x37 <=1 
C584: x17+x38 <=1 
C585: x17+x39-y17_39 <=1 
C586: x17+x40-y17_40 <=1 
C587: x17+x43 <=1 
C588: x17+x44 <=1 
C589: x17+x45 <=1 
C590: x17+x46-y17_46 <=1 
C591: x17+x47-y17_47 <=1 
C592: x17+x48 <=1 
C593: x17+x49 <=1 
C594: x17+x51-y17_51 <=1 
C595: x17+x52-y17_52 <=1 
C596: x17+x53-y17_53 <=1 
C597: x17+x54 <=1 
C598: x17+x56 <=1 
C599: x17+x59-y17_59 <=1 
C600: x17+x61 <=1 
C601: x17+x63 <=1 
C602: x18+x19-y18_19 <=1 
C603: x18+x20 <=1 
C604: x18+x21-y18_21 <=1 
C605: x18+x22 <=1 
C606: x18+x24 <=1 
C607: x18+x25-y18_25 <=1 
C608: x18+x26-y18_26 <=1 
C609: x18+x27-y18_27 <=1 
C610: x18+x29 <=1 
C611: x18+x30-y18_30 <=1 
C612: x18+x31 <=1 
C613: x18+x33 <=1 
C614: x18+x36 <=1 
C615: x18+x37 <=1 
C616: x18+x40 <=1 
C617: x18+x42 <=1 
C618: x18+x43 <=1 
C619: x18+x44-y18_44 <=1 
C620: x18+x45 <=1 
C621: x18+x46-y18_46 <=1 
C622: x18+x47 <=1 
C623: x18+x49 <=1 
C624: x18+x50 <=1 
C625: x18+x51-y18_51 <=1 
C626: x18+x53 <=1 
C627: x18+x54 <=1 
C628: x18+x55-y18_55 <=1 
C629: x18+x56-y18_56 <=1 
C630: x18+x57-y18_57 <=1 
C631: x18+x58-y18_58 <=1 
C632: x18+x59 <=1 
C633: x18+x60-y18_60 <=1 
C634: x18+x62 <=1 
C635: x19+x21 <=1 
C636: x19+x22-y19_22 <=1 
C637: x19+x24-y19_24 <=1 
C638: x19+x27-y19_27 <=1 
C639: x19+x29 <=1 
C640: x19+x34-y19_34 <=1 
C641: x19+x37-y19_37 <=1 
C642: x19+x38-y19_38 <=1 
C643: x19+x41 <=1 
C644: x19+x42-y19_42 <=1 
C645: x19+x45-y19_45 <=1 
C646: x19+x47-y19_47 <=1 
C647: x19+x48-y19_48 <=1 
C648: x19+x49-y19_49 <=1 
C649: x19+x51 <=1 
C650: x19+x52-y19_52 <=1 
C651: x19+x55-y19_55 <=1 
C652: x19+x57 <=1 
C653: x19+x58-y19_58 <=1 
C654: x19+x62-y19_62 <=1 
C655: x19+x63 <=1 
C656: x20+x26 <=1 
C657: x20+x30-y20_30 <=1 
C658: x20+x31-y20_31 <=1 
C659: x20+x32-y20_32 <=1 
C660: x20+x34 <=1 
C661: x20+x37 <=1 
C662: x20+x40 <=1 
C663: x20+x41 <=1 
C664: x20+x42 <=1 
C665: x20+x43 <=1 
C666: x20+x49-y20_49 <=1 
C667: x20+x52-y20_52 <=1 
C668: x20+x56-y20_56 <=1 
C669: x20+x57 <=1 
C670: x20+x58 <=1 
C671: x20+x60-y20_60 <=1 
C672: x20+x61-y20_61 <=1 
C673: x20+x62 <=1 
C674: x21+x22 <=1 
C675: x21+x23 <=1 
C676: x21+x25-y21_25 <=1 
C677: x21+x29 <=1 
C678: x21+x32 <=1 
C679: x21+x34 <=1 
C680: x21+x36-y21_36 <=1 
C681: x21+x37-y21_37 <=1 
C682: x21+x41 <=1 
C683: x21+x42 <=1 
C684: x21+x43 <=1 
C685: x21+x46 <=1 
C686: x21+x48-y21_48 <=1 
C687: x21+x50-y21_50 <=1 
C688: x21+x51 <=1 
C689: x21+x52 <=1 
C690: x21+x53-y21_53 <=1 
C691: x21+x55-y21_55 <=1 
C692: x21+x56-y21_56 <=1 
C693: x21+x57 <=1 
C694: x21+x59 <=1 
C695: x21+x60 <=1 
C696: x21+x63-y21_63 <=1 
C697: x22+x23-y22_23 <=1 
C698: x22+x24-y22_24 <=1 
C699: x22+x25 <=1 
C700: x22+x26-y22_26 <=1 
C701: x22+x27 <=1 
C702: x22+x28-y22_28 <=1 
C703: x22+x29 <=1 
C704: x22+x30 <=1 
C705: x22+x34 <=1 
C706: x22+x35 <=1 
C707: x22+x36 <=1 
C708: x22+x37-y22_37 <=1 
C709: x22+x38-y22_38 <=1 
C710: x22+x39 <=1 
C711: x22+x40-y22_40 <=1 
C712: x22+x41 <=1 
C713: x22+x42 <=1 
C714: x22+x43-y22_43 <=1 
C715: x22+x44 <=1 
C716: x22+x45 <=1 
C717: x22+x46-y22_46 <=1 
C718: x22+x47 <=1 
C719: x22+x48-y22_48 <=1 
C720: x22+x49-y22_49 <=1 
C721: x22+x52-y22_52 <=1 
C722: x22+x55 <=1 
C723: x22+x56 <=1 
C724: x22+x57 <=1 
C725: x22+x59 <=1 
C726: x22+x61-y22_61 <=1 
C727: x22+x62-y22_62 <=1 
C728: x23+x30 <=1 
C729: x23+x31-y23_31 <=1 
C730: x23+x32-y23_32 <=1 
C731: x23+x34 <=1 
C732: x23+x35 <=1 
C733: x23+x36 <=1 
C734: x23+x37 <=1 
C735: x23+x38-y23_38 <=1 
C736: x23+x40 <=1 
C737: x23+x42-y23_42 <=1 
C738: x23+x43 <=1 
C739: x23+x44-y23_44 <=1 
C740: x23+x45 <=1 
C741: x23+x46-y23_46 <=1 
C742: x23+x47-y23_47 <=1 
C743: x23+x48 <=1 
C744: x23+x49 <=1 
C745: x23+x50 <=1 
C746: x23+x52 <=1 
C747: x23+x54 <=1 
C748: x23+x55 <=1 
C749: x23+x56-y23_56 <=1 
C750: x23+x58-y23_58 <=1 
C751: x23+x59 <=1 
C752: x23+x60-y23_60 <=1 
C753: x24+x25 <=1 
C754: x24+x26 <=1 
C755: x24+x27-y24_27 <=1 
C756: x24+x28 <=1 
C757: x24+x29 <=1 
C758: x24+x30 <=1 
C759: x24+x31 <=1 
C760: x24+x32 <=1 
C761: x24+x35-y24_35 <=1 
C762: x24+x36-y24_36 <=1 
C763: x24+x39-y24_39 <=1 
C764: x24+x41 <=1 
C765: x24+x42 <=1 
C766: x24+x45-y24_45 <=1 
C767: x24+x46 <=1 
C768: x24+x47-y24_47 <=1 
C769: x24+x48-y24_48 <=1 
C770: x24+x51-y24_51 <=1 
C771: x24+x55 <=1 
C772: x24+x57-y24_57 <=1 
C773: x24+x58-y24_58 <=1 
C774: x24+x59-y24_59 <=1 
C775: x24+x60 <=1 
C776: x24+x62 <=1 
C777: x24+x63-y24_63 <=1 
C778: x25+x26 <=1 
C779: x25+x28-y25_28 <=1 
C780: x25+x29-y25_29 <=1 
C781: x25+x30-y25_30 <=1 
C782: x25+x32-y25_32 <=1 
C783: x25+x33-y25_33 <=1 
C784: x25+x35-y25_35 <=1 
C785: x25+x37 <=1 
C786: x25+x38-y25_38 <=1 
C787: x25+x39 <=1 
C788: x25+x41 <=1 
C789: x25+x42-y25_42 <=1 
C790: x25+x43 <=1 
C791: x25+x45 <=1 
C792: x25+x47 <=1 
C793: x25+x52-y25_52 <=1 
C794: x25+x55 <=1 
C795: x25+x57 <=1 
C796: x25+x58 <=1 
C797: x25+x60-y25_60 <=1 
C798: x25+x62 <=1 
C799: x26+x27-y26_27 <=1 
C800: x26+x29 <=1 
C801: x26+x30-y26_30 <=1 
C802: x26+x31 <=1 
C803: x26+x33 <=1 
C804: x26+x34-y26_34 <=1 
C805: x26+x35-y26_35 <=1 
C806: x26+x36-y26_36 <=1 
C807: x26+x38 <=1 
C808: x26+x39 <=1 
C809: x26+x41 <=1 
C810: x26+x42-y26_42 <=1 
C811: x26+x45-y26_45 <=1 
C812: x26+x46 <=1 
C813: x26+x47 <=1 
C814: x26+x48 <=1 
C815: x26+x49 <=1 
C816: x26+x52 <=1 
C817: x26+x54 <=1 
C818: x26+x55-y26_55 <=1 
C819: x26+x56-y26_56 <=1 
C820: x26+x57-y26_57 <=1 
C821: x26+x60-y26_60 <=1 
C822: x26+x61-y26_61 <=1 
C823: x26+x63 <=1 
C824: x27+x29-y27_29 <=1 
C825: x27+x30 <=1 
C826: x27+x32 <=1 
C827: x27+x33 <=1 
C828: x27+x34-y27_34 <=1 
C829: x27+x35 <=1 
C830: x27+x36 <=1 
C831: x27+x37 <=1 
C832: x27+x38-y27_38 <=1 
C833: x27+x40 <=1 
C834: x27+x42-y27_42 <=1 
C835: x27+x43-y27_43 <=1 
C836: x27+x44 <=1 
C837: x27+x46 <=1 
C838: x27+x47 <=1 
C839: x27+x48-y27_48 <=1 
C840: x27+x49 <=1 
C841: x27+x52 <=1 
C842: x27+x53 <=1 
C843: x27+x54-y27_54 <=1 
C844: x27+x56 <=1 
C845: x27+x57-y27_57 <=1 
C846: x27+x58-y27_58 <=1 
C847: x27+x59 <=1 
C848: x27+x61-y27_61 <=1 
C849: x27+x63-y27_63 <=1 
C850: x28+x30 <=1 
C851: x28+x31-y28_31 <=1 
C852: x28+x32-y28_32 <=1 
C853: x28+x37-y28_37 <=1 
C854: x28+x38 <=1 
C855: x28+x42 <=1 
C856: x28+x43-y28_43 <=1 
C857: x28+x44-y28_44 <=1 
C858: x28+x49-y28_49 <=1 
C859: x28+x50 <=1 
C860: x28+x51 <=1 
C861: x28+x52 <=1 
C862: x28+x53-y28_53 <=1 
C863: x28+x54 <=1 
C864: x28+x55-y28_55 <=1 
C865: x28+x56-y28_56 <=1 
C866: x28+x57-y28_57 <=1 
C867: x28+x58-y28_58 <=1 
C868: x28+x59-y28_59 <=1 
C869: x28+x60 <=1 
C870: x28+x61-y28_61 <=1 
C871: x28+x62 <=1 
C872: x28+x63 <=1 
C873: x29+x30-y29_30 <=1 
C874: x29+x32-y29_32 <=1 
C875: x29+x33-y29_33 <=1 
C876: x29+x34-y29_34 <=1 
C877: x29+x35-y29_35 <=1 
C878: x29+x37 <=1 
C879: x29+x38 <=1 
C880: x29+x40 <=1 
C881: x29+x41-y29_41 <=1 
C882: x29+x42 <=1 
C883: x29+x44-y29_44 <=1 
C884: x29+x45-y29_45 <=1 
C885: x29+x48 <=1 
C886: x29+x49 <=1 
C887: x29+x54 <=1 
C888: x29+x59-y29_59 <=1 
C889: x29+x60-y29_60 <=1 
C890: x29+x62-y29_62 <=1 
C891: x29+x63 <=1 
C892: x30+x32-y30_32 <=1 
C893: x30+x33-y30_33 <=1 
C894: x30+x34 <=1 
C895: x30+x35-y30_35 <=1 
C896: x30+x36-y30_36 <=1 
C897: x30+x37 <=1 
C898: x30+x39-y30_39 <=1 
C899: x30+x40-y30_40 <=1 
C900: x30+x41-y30_41 <=1 
C901: x30+x42 <=1 
C902: x30+x45-y30_45 <=1 
C903: x30+x46-y30_46 <=1 
C904: x30+x47-y30_47 <=1 
C905: x30+x51 <=1 
C906: x30+x52 <=1 
C907: x30+x53-y30_53 <=1 
C908: x30+x55-y30_55 <=1 
C909: x30+x56-y30_56 <=1 
C910: x30+x57-y30_57 <=1 
C911: x30+x58 <=1 
C912: x30+x59-y30_59 <=1 
C913: x30+x60 <=1 
C914: x30+x62-y30_62 <=1 
C915: x31+x35-y31_35 <=1 
C916: x31+x36 <=1 
C917: x31+x37-y31_37 <=1 
C918: x31+x42 <=1 
C919: x31+x45 <=1 
C920: x31+x46-y31_46 <=1 
C921: x31+x47 <=1 
C922: x31+x48-y31_48 <=1 
C923: x31+x49-y31_49 <=1 
C924: x31+x51-y31_51 <=1 
C925: x31+x52 <=1 
C926: x31+x56-y31_56 <=1 
C927: x31+x57-y31_57 <=1 
C928: x31+x59-y31_59 <=1 
C929: x31+x60 <=1 
C930: x31+x62 <=1 
C931: x31+x63 <=1 
C932: x32+x33-y32_33 <=1 
C933: x32+x34 <=1 
C934: x32+x35 <=1 
C935: x32+x36-y32_36 <=1 
C936: x32+x38-y32_38 <=1 
C937: x32+x40-y32_40 <=1 
C938: x32+x42 <=1 
C939: x32+x45-y32_45 <=1 
C940: x32+x47 <=1 
C941: x32+x49-y32_49 <=1 
C942: x32+x50-y32_50 <=1 
C943: x32+x51 <=1 
C944: x32+x55-y32_55 <=1 
C945: x32+x57 <=1 
C946: x32+x58 <=1 
C947: x32+x61-y32_61 <=1 
C948: x33+x36 <=1 
C949: x33+x37-y33_37 <=1 
C950: x33+x38 <=1 
C951: x33+x39 <=1 
C952: x33+x40 <=1 
C953: x33+x41 <=1 
C954: x33+x42-y33_42 <=1 
C955: x33+x45 <=1 
C956: x33+x46 <=1 
C957: x33+x47-y33_47 <=1 
C958: x33+x48 <=1 
C959: x33+x49 <=1 
C960: x33+x50-y33_50 <=1 
C961: x33+x54 <=1 
C962: x33+x56-y33_56 <=1 
C963: x33+x57 <=1 
C964: x33+x59-y33_59 <=1 
C965: x34+x35 <=1 
C966: x34+x36 <=1 
C967: x34+x37-y34_37 <=1 
C968: x34+x39-y34_39 <=1 
C969: x34+x40-y34_40 <=1 
C970: x34+x43-y34_43 <=1 
C971: x34+x45-y34_45 <=1 
C972: x34+x46-y34_46 <=1 
C973: x34+x51 <=1 
C974: x34+x55 <=1 
C975: x34+x56-y34_56 <=1 
C976: x34+x57 <=1 
C977: x34+x58 <=1 
C978: x34+x61-y34_61 <=1 
C979: x34+x62-y34_62 <=1 
C980: x34+x63-y34_63 <=1 
C981: x35+x37 <=1 
C982: x35+x38-y35_38 <=1 
C983: x35+x40-y35_40 <=1 
C984: x35+x41 <=1 
C985: x35+x43-y35_43 <=1 
C986: x35+x44 <=1 
C987: x35+x46-y35_46 <=1 
C988: x35+x49-y35_49 <=1 
C989: x35+x50-y35_50 <=1 
C990: x35+x53-y35_53 <=1 
C991: x35+x56 <=1 
C992: x35+x59 <=1 
C993: x35+x60 <=1 
C994: x35+x62-y35_62 <=1 
C995: x35+x63-y35_63 <=1 
C996: x36+x37 <=1 
C997: x36+x40 <=1 
C998: x36+x41 <=1 
C999: x36+x43-y36_43 <=1 
C1000: x36+x44-y36_44 <=1 
C1001: x36+x45-y36_45 <=1 
C1002: x36+x46 <=1 
C1003: x36+x47-y36_47 <=1 
C1004: x36+x48-y36_48 <=1 
C1005: x36+x49 <=1 
C1006: x36+x50 <=1 
C1007: x36+x53 <=1 
C1008: x36+x54-y36_54 <=1 
C1009: x36+x56 <=1 
C1010: x36+x57 <=1 
C1011: x36+x58 <=1 
C1012: x36+x60 <=1 
C1013: x36+x62 <=1 
C1014: x37+x38 <=1 
C1015: x37+x39 <=1 
C1016: x37+x40 <=1 
C1017: x37+x41 <=1 
C1018: x37+x42 <=1 
C1019: x37+x44 <=1 
C1020: x37+x46 <=1 
C1021: x37+x47-y37_47 <=1 
C1022: x37+x48 <=1 
C1023: x37+x49 <=1 
C1024: x37+x50-y37_50 <=1 
C1025: x37+x51 <=1 
C1026: x37+x52 <=1 
C1027: x37+x54 <=1 
C1028: x37+x55-y37_55 <=1 
C1029: x37+x56 <=1 
C1030: x37+x57-y37_57 <=1 
C1031: x37+x58 <=1 
C1032: x37+x59-y37_59 <=1 
C1033: x37+x62 <=1 
C1034: x37+x63-y37_63 <=1 
C1035: x38+x39-y38_39 <=1 
C1036: x38+x41 <=1 
C1037: x38+x42-y38_42 <=1 
C1038: x38+x43 <=1 
C1039: x38+x45-y38_45 <=1 
C1040: x38+x46 <=1 
C1041: x38+x49-y38_49 <=1 
C1042: x38+x51-y38_51 <=1 
C1043: x38+x53-y38_53 <=1 
C1044: x38+x54 <=1 
C1045: x38+x55-y38_55 <=1 
C1046: x38+x57-y38_57 <=1 
C1047: x38+x58 <=1 
C1048: x38+x59 <=1 
C1049: x38+x60 <=1 
C1050: x38+x62 <=1 
C1051: x39+x41-y39_41 <=1 
C1052: x39+x44-y39_44 <=1 
C1053: x39+x46 <=1 
C1054: x39+x48-y39_48 <=1 
C1055: x39+x49 <=1 
C1056: x39+x50-y39_50 <=1 
C1057: x39+x52-y39_52 <=1 
C1058: x39+x53 <=1 
C1059: x39+x54-y39_54 <=1 
C1060: x39+x56 <=1 
C1061: x39+x58-y39_58 <=1 
C1062: x39+x60-y39_60 <=1 
C1063: x39+x61-y39_61 <=1 
C1064: x39+x62 <=1 
C1065: x40+x42 <=1 
C1066: x40+x43 <=1 
C1067: x40+x44-y40_44 <=1 
C1068: x40+x45 <=1 
C1069: x40+x47 <=1 
C1070: x40+x48 <=1 
C1071: x40+x54 <=1 
C1072: x40+x55 <=1 
C1073: x40+x57 <=1 
C1074: x40+x58-y40_58 <=1 
C1075: x40+x60-y40_60 <=1 
C1076: x40+x62 <=1 
C1077: x40+x63-y40_63 <=1 
C1078: x41+x43 <=1 
C1079: x41+x44 <=1 
C1080: x41+x45 <=1 
C1081: x41+x46-y41_46 <=1 
C1082: x41+x51 <=1 
C1083: x41+x54 <=1 
C1084: x41+x55-y41_55 <=1 
C1085: x41+x56-y41_56 <=1 
C1086: x41+x57-y41_57 <=1 
C1087: x41+x58-y41_58 <=1 
C1088: x41+x59-y41_59 <=1 
C1089: x41+x61 <=1 
C1090: x42+x43 <=1 
C1091: x42+x44-y42_44 <=1 
C1092: x42+x45-y42_45 <=1 
C1093: x42+x46 <=1 
C1094: x42+x47-y42_47 <=1 
C1095: x42+x48-y42_48 <=1 
C1096: x42+x49-y42_49 <=1 
C1097: x42+x50-y42_50 <=1 
C1098: x42+x52-y42_52 <=1 
C1099: x42+x53 <=1 
C1100: x42+x54 <=1 
C1101: x42+x56 <=1 
C1102: x42+x60 <=1 
C1103: x42+x61 <=1 
C1104: x42+x63-y42_63 <=1 
C1105: x43+x45 <=1 
C1106: x43+x46-y43_46 <=1 
C1107: x43+x47-y43_47 <=1 
C1108: x43+x53-y43_53 <=1 
C1109: x43+x55-y43_55 <=1 
C1110: x43+x56 <=1 
C1111: x43+x60 <=1 
C1112: x43+x61-y43_61 <=1 
C1113: x43+x63-y43_63 <=1 
C1114: x44+x46 <=1 
C1115: x44+x47 <=1 
C1116: x44+x48-y44_48 <=1 
C1117: x44+x49-y44_49 <=1 
C1118: x44+x50-y44_50 <=1 
C1119: x44+x51-y44_51 <=1 
C1120: x44+x53-y44_53 <=1 
C1121: x44+x54-y44_54 <=1 
C1122: x44+x58-y44_58 <=1 
C1123: x44+x59 <=1 
C1124: x44+x61-y44_61 <=1 
C1125: x44+x62-y44_62 <=1 
C1126: x44+x63-y44_63 <=1 
C1127: x45+x46 <=1 
C1128: x45+x47-y45_47 <=1 
C1129: x45+x50 <=1 
C1130: x45+x54 <=1 
C1131: x45+x56-y45_56 <=1 
C1132: x45+x57 <=1 
C1133: x45+x60 <=1 
C1134: x45+x62 <=1 
C1135: x45+x63-y45_63 <=1 
C1136: x46+x47-y46_47 <=1 
C1137: x46+x49-y46_49 <=1 
C1138: x46+x52-y46_52 <=1 
C1139: x46+x53-y46_53 <=1 
C1140: x46+x54-y46_54 <=1 
C1141: x46+x55-y46_55 <=1 
C1142: x46+x56-y46_56 <=1 
C1143: x46+x57-y46_57 <=1 
C1144: x46+x58-y46_58 <=1 
C1145: x46+x59 <=1 
C1146: x46+x60 <=1 
C1147: x46+x61 <=1 
C1148: x47+x48-y47_48 <=1 
C1149: x47+x49 <=1 
C1150: x47+x51-y47_51 <=1 
C1151: x47+x54-y47_54 <=1 
C1152: x47+x56-y47_56 <=1 
C1153: x47+x58 <=1 
C1154: x47+x60 <=1 
C1155: x47+x61 <=1 
C1156: x47+x62 <=1 
C1157: x47+x63-y47_63 <=1 
C1158: x48+x49-y48_49 <=1 
C1159: x48+x50 <=1 
C1160: x48+x54-y48_54 <=1 
C1161: x48+x56 <=1 
C1162: x48+x57 <=1 
C1163: x48+x58 <=1 
C1164: x48+x59 <=1 
C1165: x48+x60 <=1 
C1166: x48+x61 <=1 
C1167: x48+x63-y48_63 <=1 
C1168: x49+x50 <=1 
C1169: x49+x51-y49_51 <=1 
C1170: x49+x55 <=1 
C1171: x49+x56-y49_56 <=1 
C1172: x49+x57 <=1 
C1173: x49+x58-y49_58 <=1 
C1174: x49+x59-y49_59 <=1 
C1175: x49+x60-y49_60 <=1 
C1176: x49+x61 <=1 
C1177: x49+x62-y49_62 <=1 
C1178: x49+x63 <=1 
C1179: x50+x51 <=1 
C1180: x50+x56 <=1 
C1181: x50+x57 <=1 
C1182: x50+x58 <=1 
C1183: x50+x60-y50_60 <=1 
C1184: x50+x62-y50_62 <=1 
C1185: x50+x63 <=1 
C1186: x51+x52-y51_52 <=1 
C1187: x51+x54 <=1 
C1188: x52+x53 <=1 
C1189: x52+x55 <=1 
C1190: x52+x56 <=1 
C1191: x52+x58-y52_58 <=1 
C1192: x53+x56 <=1 
C1193: x53+x57 <=1 
C1194: x53+x59 <=1 
C1195: x53+x63-y53_63 <=1 
C1196: x54+x60-y54_60 <=1 
C1197: x54+x61 <=1 
C1198: x54+x63-y54_63 <=1 
C1199: x55+x56 <=1 
C1200: x55+x57-y55_57 <=1 
C1201: x55+x60-y55_60 <=1 
C1202: x55+x63 <=1 
C1203: x56+x57-y56_57 <=1 
C1204: x56+x58-y56_58 <=1 
C1205: x56+x59-y56_59 <=1 
C1206: x56+x61-y56_61 <=1 
C1207: x56+x63 <=1 
C1208: x57+x58-y57_58 <=1 
C1209: x57+x59 <=1 
C1210: x57+x60-y57_60 <=1 
C1211: x57+x61-y57_61 <=1 
C1212: x57+x62-y57_62 <=1 
C1213: x57+x63-y57_63 <=1 
C1214: x58+x59 <=1 
C1215: x58+x61-y58_61 <=1 
C1216: x58+x62-y58_62 <=1 
C1217: x58+x63-y58_63 <=1 
C1218: x59+x60 <=1 
C1219: x59+x61 <=1 
C1220: x59+x63 <=1 
C1221: x60+x61-y60_61 <=1 
C1222: x60+x62-y60_62 <=1 
C1223: x60+x63-y60_63 <=1 
C1224: x62+x63-y62_63 <=1 

binary
x0
x1
x2
x3
x4
x5
x6
x7
x8
x9
x10
x11
x12
x13
x14
x15
x16
x17
x18
x19
x20
x21
x22
x23
x24
x25
x26
x27
x28
x29
x30
x31
x32
x33
x34
x35
x36
x37
x38
x39
x40
x41
x42
x43
x44
x45
x46
x47
x48
x49
x50
x51
x52
x53
x54
x55
x56
x57
x58
x59
x60
x61
x62
x63
