problem_generation/data/GISP/train/er_n=64_m=1224_p=0.60_SET2_setparam=100.00_alpha=0.50_539.sol
objective value:                                 1360
x7                                                  1 	(obj:100)
x8                                                  1 	(obj:100)
x11                                                 1 	(obj:100)
x29                                                 1 	(obj:100)
x30                                                 1 	(obj:100)
x32                                                 1 	(obj:100)
x33                                                 1 	(obj:100)
x43                                                 1 	(obj:100)
x44                                                 1 	(obj:100)
x50                                                 1 	(obj:100)
x53                                                 1 	(obj:100)
x55                                                 1 	(obj:100)
x61                                                 1 	(obj:100)
x62                                                 1 	(obj:100)
y29_32                                              1 	(obj:-1)
y7_30                                               1 	(obj:-1)
y32_55                                              1 	(obj:-1)
y43_55                                              1 	(obj:-1)
y32_50                                              1 	(obj:-1)
y29_44                                              1 	(obj:-1)
y29_30                                              1 	(obj:-1)
y50_62                                              1 	(obj:-1)
y43_53                                              1 	(obj:-1)
y30_55                                              1 	(obj:-1)
y7_43                                               1 	(obj:-1)
y7_61                                               1 	(obj:-1)
y8_44                                               1 	(obj:-1)
y7_29                                               1 	(obj:-1)
y8_30                                               1 	(obj:-1)
y29_62                                              1 	(obj:-1)
y33_50                                              1 	(obj:-1)
y44_50                                              1 	(obj:-1)
y11_30                                              1 	(obj:-1)
y8_11                                               1 	(obj:-1)
y29_33                                              1 	(obj:-1)
y32_61                                              1 	(obj:-1)
y43_61                                              1 	(obj:-1)
y32_33                                              1 	(obj:-1)
y8_53                                               1 	(obj:-1)
y30_53                                              1 	(obj:-1)
y30_62                                              1 	(obj:-1)
y11_44                                              1 	(obj:-1)
y8_61                                               1 	(obj:-1)
y11_43                                              1 	(obj:-1)
y11_61                                              1 	(obj:-1)
y7_50                                               1 	(obj:-1)
y8_33                                               1 	(obj:-1)
y30_33                                              1 	(obj:-1)
y44_53                                              1 	(obj:-1)
y44_62                                              1 	(obj:-1)
y11_33                                              1 	(obj:-1)
y30_32                                              1 	(obj:-1)
y44_61                                              1 	(obj:-1)
y7_8                                                1 	(obj:-1)
